/* Objective function */
max: ;

/* Constraints */
R1: +x8 <= 0;
R2: +x9 <= 0;
R3: +x2 <= 0;
R4: +x2 <= 0;
R5: +x10 <= 0;
R6: +x1 <= 0;
R7: +x3 <= 0;
R8: +x4 <= 0;
+x11 +x12 <= 0;
R10: +x5 <= 0;
R11: +x6 <= 0;
0 x1 <= 1;
R13: +x7 <= 0;
0 x1 <= 0;
R15: +x1 <= 0;
R16: +x7 <= 0;
R17: +x5 <= 0;
R18: +x6 <= 0;
0 x1 <= 0;
R20: +x1 <= 0;
R21: +x3 <= 0;
R22: +x4 <= 0;
R23: +x8 >= 0;
R24: +x9 >= 0;
R25: +x9 >= 0;
R26: +x2 >= 0;
R27: +x10 >= 0;
R28: +x1 >= 0;
R29: +x3 >= 0;
R30: +x4 >= 0;
R31: +x11 >= 0;
R32: +x12 >= 0;
+x5 +x6 >= 0;
0 x1 >= 1;
R35: +x7 >= 0;
R36: +x4 >= 0;
0 x1 >= 1;
R38: +x11 >= 0;
R39: +x12 >= 0;
R40: +x7 >= 0;
R41: +x10 >= 0;
R42: +x1 >= 0;
R43: +x3 >= 0;
R44: +x1 >= 0;
R45: +x2 >= 0;
R46: +x3 >= 0;
R47: +x4 >= 0;
R48: +x5 >= 0;
R49: +x6 >= 0;
R50: +x7 >= 0;
R51: +x8 >= 0;
R52: +x9 >= 0;
R53: +x10 >= 0;
R54: +x11 >= 0;
R55: +x12 >= 0;
